130
100000
15801
476
21687
16002
6020
7627
9499
7885
9214
1523
2186
6258
20772
14710
215
8904
11772
12133
17587
23794
24180
6872
14292
1951
22602
21949
24772
10201
13417
337
1721
6699
10512
17
15370
16167
2875
1152
20028
13225
12352
4457
16080
2733
12270
1636
6179
2305
1646
6441
15429
23319
23230
5173
17212
13356
11851
22345
3339
24676
15540
3541
1975
20549
21779
7561
16339
17223
5625
24489
18782
1230
8323
1044
5355
16464
4874
13268
1485
1433
616
18276
22691
891
15567
11674
3813
12371
6300
24327
18127
19413
13166
1058
12856
22501
23366
3146
9414
18190
12470
9640
21072
4340
3917
9815
22329
6551
1562
20016
18812
22812
9338
4882
7048
5177
10079
17430
15305
776
21415
15622
3237
18284
12184
616
22042
21809
8760
19585
